# echo input file to output
echo
title "VEM/TDDFT Calculation of BODIPY in Toluene with Dispersion Correction"
memory total 16 gb
scratch_dir /tmp
 
# Charge of the system
charge 0
 
# XYZ coordinates in Angstrom units 
# Automatic symmetry detection enabled (default tol 0.01). Disable with noautosym.
geometry units angstroms autosym 0.1
B      0.000001   -1.162957    0.000644
N      1.246339   -0.240964    0.000674
C      2.517484   -0.619309    0.001360
C      3.356788    0.504376    0.001062
C      2.540488    1.611831   -0.000033
C      1.205532    1.138202   -0.000109
C      0.000244    1.821050   -0.000443
C     -1.205163    1.138396    0.000211
N     -1.246186   -0.240759    0.001038
C     -2.517394   -0.618905    0.001979
C     -3.356516    0.504912    0.001818
C     -2.540037    1.612241    0.000543
F      0.000115   -1.949817    1.129932
F     -0.000242   -1.949247   -1.129045
H      2.781890   -1.659490    0.002099
H      4.428486    0.483157    0.001574
H      2.831001    2.644047   -0.000553
H      0.000331    2.900662   -0.001206
H     -2.781963   -1.659043    0.002802
H     -4.428217    0.483869    0.002536
H     -2.830387    2.644502    0.000062
end
 
dft
  # Exchange-correlation functional
  xc b3lyp

  # Semidirect SCF. Cache integrals in memory, but do not use disk
  # 130 megawords is ~1000 megabytes for 64-bit machines
  semidirect memsize 130000000 filesize 0

  # For completely direct SCF without caching, use
  #direct

  # Spin multiplicity 2S + 1, where S = 0, 1/2, 1, 3/2, ...
  mult 1

  # For open-shell singlet calculation, add
  odft

  # Reduce output during geometry optimization
  noprint "final vectors analysis"
 
  # Increase the number of SCF iterations
  iterations 100

  # Dispersion
  disp vdw 3
end

# Solvation model
cosmos
  solvent toluene
  do_cosmo_vem 1
  minbem 3
  ificos 1
end

# Basis set definitions
basis spherical
  * library def2-tzvp
end
ecp
  Pt library def2-ecp
end
 
# Options for the geometry optimizer
driver
  # Max 100 optimization steps
  maxiter 100
  # Print XYZ coordinates of each step
  xyz
end
 
# Optimize geometry
task dft optimize

# Run property calculation after the geometry optimization to
# create Molden file for plotting molecular orbitals
property
  moldenfile
  molden_norm none
end

task dft property

# Excited state calculation
tddft
  nroots 5
  algorithm 1
  singlet
  triplet
  target 1
  targetsym a
  civecs
  grad
    root 1
  end
end
task tddft optimize

